100
100
Academic license - for non-commercial use only
Optimize a model with 10150 rows, 568333 columns and 415283881 nonzeros
Variable types: 0 continuous, 568333 integer (568333 binary)
Coefficient statistics:
  Matrix range     [1e+00, 1e+00]
  Objective range  [3e+01, 2e+04]
  Bounds range     [1e+00, 1e+00]
  RHS range        [1e+00, 3e+00]
Found heuristic solution: objective 23207
Presolve removed 199 rows and 0 columns (presolve time = 61s) ...
Presolve removed 199 rows and 0 columns (presolve time = 75s) ...
Presolve removed 199 rows and 0 columns (presolve time = 1060s) ...
Presolve removed 199 rows and 0 columns (presolve time = 1065s) ...
Presolve removed 199 rows and 0 columns (presolve time = 1070s) ...
Presolve removed 199 rows and 0 columns (presolve time = 1130s) ...
Presolve removed 231 rows and 0 columns (presolve time = 1135s) ...
Presolve removed 231 rows and 0 columns (presolve time = 1140s) ...
Presolve removed 231 rows and 0 columns (presolve time = 1155s) ...
Presolve removed 231 rows and 0 columns (presolve time = 1160s) ...
Presolve removed 231 rows and 0 columns (presolve time = 1167s) ...
Presolve removed 231 rows and 0 columns (presolve time = 1224s) ...
Presolve removed 231 rows and 646 columns (presolve time = 1225s) ...
Presolve removed 231 rows and 646 columns (presolve time = 1275s) ...
Presolve removed 231 rows and 646 columns (presolve time = 1280s) ...
Presolve removed 231 rows and 646 columns (presolve time = 1294s) ...
Presolve removed 231 rows and 646 columns (presolve time = 1295s) ...
Presolve removed 231 rows and 646 columns (presolve time = 1313s) ...
Presolve removed 231 rows and 646 columns (presolve time = 1367s) ...
Presolve removed 231 rows and 646 columns (presolve time = 1370s) ...
Presolve removed 231 rows and 646 columns (presolve time = 1425s) ...
Presolve removed 231 rows and 646 columns (presolve time = 1430s) ...
Presolve removed 231 rows and 646 columns (presolve time = 1444s) ...
Presolve removed 231 rows and 646 columns (presolve time = 1445s) ...
Presolve removed 231 rows and 646 columns (presolve time = 1732s) ...
Presolve removed 231 rows and 646 columns (presolve time = 1737s) ...
Presolve removed 231 rows and 646 columns (presolve time = 1740s) ...
Presolve removed 231 rows and 646 columns (presolve time = 1745s) ...
Presolve removed 231 rows and 646 columns (presolve time = 1750s) ...
Presolve removed 231 rows and 646 columns (presolve time = 1755s) ...
Presolve removed 231 rows and 646 columns (presolve time = 1760s) ...
Presolve removed 231 rows and 646 columns (presolve time = 1765s) ...
Presolve removed 231 rows and 646 columns (presolve time = 1770s) ...
Presolve removed 231 rows and 646 columns (presolve time = 1775s) ...
Presolve removed 231 rows and 646 columns (presolve time = 1780s) ...
Presolve removed 231 rows and 646 columns (presolve time = 1785s) ...
Presolve removed 231 rows and 646 columns
Presolve time: 1788.92s

Explored 0 nodes (0 simplex iterations) in 2209.76 seconds
Thread count was 1 (of 8 available processors)

Solution count 1: 23207 
No other solutions better than 0

Time limit reached
Best objective 2.320700000000e+04, best bound -, gap -
Obj: 23207
